************************************************************************
file with basedata            : j9038_.bas
initial value random generator: 1954090658
************************************************************************
projects                      :  1
jobs (incl. supersource/sink ):  92
horizon                       :  489
RESOURCES
  - renewable                 :  4   R
  - nonrenewable              :  0   N
  - doubly constrained        :  0   D
************************************************************************
PROJECT INFORMATION:
pronr.  #jobs rel.date duedate tardcost  MPM-Time
    1     90      0       88       21       88
************************************************************************
PRECEDENCE RELATIONS:
jobnr.    #modes  #successors   successors
   1        1          3           2   3   4
   2        1          3           6  35  36
   3        1          3           5  10  28
   4        1          3           7  10  52
   5        1          3          11  17  64
   6        1          3           8   9  49
   7        1          3          13  14  22
   8        1          3          12  46  47
   9        1          1          38
  10        1          3          19  56  79
  11        1          3          15  19  21
  12        1          3          15  18  20
  13        1          1          16
  14        1          3          21  23  38
  15        1          3          29  59  83
  16        1          3          25  26  30
  17        1          3          31  32  41
  18        1          2          22  33
  19        1          3          47  61  82
  20        1          3          51  65  88
  21        1          1          24
  22        1          3          25  27  67
  23        1          3          34  35  57
  24        1          3          54  57  75
  25        1          1          64
  26        1          3          37  42  48
  27        1          2          51  84
  28        1          2          44  49
  29        1          1          37
  30        1          3          36  42  45
  31        1          2          50  72
  32        1          3          38  45  49
  33        1          3          39  41  78
  34        1          3          61  63  78
  35        1          1          41
  36        1          3          46  58  60
  37        1          3          40  53  60
  38        1          2          44  86
  39        1          2          42  48
  40        1          3          54  68  73
  41        1          3          43  45  74
  42        1          3          51  55  59
  43        1          3          53  68  76
  44        1          2          50  75
  45        1          3          54  63  70
  46        1          3          57  59  67
  47        1          1          50
  48        1          2          55  77
  49        1          3          52  72  80
  50        1          1          80
  51        1          3          53  63  69
  52        1          3          62  69  73
  53        1          2          70  91
  54        1          2          65  77
  55        1          2          64  67
  56        1          3          58  62  69
  57        1          2          65  72
  58        1          3          61  66  68
  59        1          1          86
  60        1          2          62  73
  61        1          1          87
  62        1          1          84
  63        1          1          81
  64        1          3          66  70  74
  65        1          1          66
  66        1          1          71
  67        1          2          71  80
  68        1          2          71  89
  69        1          2          74  85
  70        1          1          90
  71        1          1          84
  72        1          2          77  78
  73        1          2          75  79
  74        1          1          76
  75        1          2          76  81
  76        1          1          82
  77        1          3          79  87  88
  78        1          2          83  87
  79        1          2          81  82
  80        1          1          83
  81        1          2          85  89
  82        1          1          89
  83        1          1          88
  84        1          2          85  86
  85        1          1          91
  86        1          1          90
  87        1          1          90
  88        1          1          91
  89        1          1          92
  90        1          1          92
  91        1          1          92
  92        1          0        
************************************************************************
REQUESTS/DURATIONS:
jobnr. mode duration  R 1  R 2  R 3  R 4
------------------------------------------------------------------------
  1      1     0       0    0    0    0
  2      1     3       5    0    9    0
  3      1     1       6    2    7    8
  4      1     3       0    0   10    0
  5      1     3       0    6   10    0
  6      1     4       7    0    0    8
  7      1     8       0    7    0   10
  8      1     9       4    5    4    0
  9      1     4       0    6    0    4
 10      1     3       0   10    0    0
 11      1     8       1    0    2    0
 12      1     4       2    0    9    5
 13      1     1       6    0    0    6
 14      1     9       5    0    2    0
 15      1     9       0    0    9    0
 16      1    10       0    0    0    6
 17      1     3       4    8    0    0
 18      1     5       5    1    0    5
 19      1     4       0    9    0    5
 20      1     3       4    0    2    0
 21      1     9       2    0    0    0
 22      1     1       3    3    0    1
 23      1     9       0    0    8    0
 24      1     1       3    0    0    0
 25      1     5       6    9   10    0
 26      1     9       0   10    0    8
 27      1     7       9    4    0    1
 28      1     7       0    9    5    9
 29      1     4       0    0    0    2
 30      1    10       0   10    6    0
 31      1     4       0    3    4    0
 32      1     3       2    3    7    4
 33      1    10       0   10    0    0
 34      1     8       5    0    0    4
 35      1     5       0    5    0    0
 36      1     7       0    9   10    5
 37      1     7       0    0    3    4
 38      1     6       8    3    0    0
 39      1     3       1    0    0    0
 40      1     6       1    0    1    0
 41      1     8       7    0    0    0
 42      1     4       0   10    2    6
 43      1     7      10    4    0   10
 44      1     5       0    7    3    0
 45      1     6       8    0    2    3
 46      1     5       6    4    0    0
 47      1     2       0    3    2    0
 48      1     7       1    0    0    0
 49      1     6       0    9    7    9
 50      1     4       0    0    3    8
 51      1     5       4    0    6    0
 52      1     7       2    5    9    0
 53      1     9       6    0    4    0
 54      1     6       7    0    0    4
 55      1     1       0    0    0   10
 56      1     5       8    7    0    0
 57      1     7       0    3    0    0
 58      1    10       0   10    0    0
 59      1     4       0    6    0    4
 60      1     5       9    0    0    5
 61      1     3       3    7    0    4
 62      1     4       0    8    4    8
 63      1    10       1    6   10    0
 64      1     8      10    8    0    0
 65      1     2       2    0    0    0
 66      1     2       6    0    0    0
 67      1     6       0    9    1    4
 68      1     8       9    0    0    4
 69      1     4       3    0    0    0
 70      1     6       0    8    6    0
 71      1     4       8    2    0    0
 72      1     7       6    0    0    0
 73      1     2       6    7    0    0
 74      1     1       0    2    0    0
 75      1     2      10    0    7    2
 76      1    10       5    0    3    0
 77      1     4       9    6    0    0
 78      1    10       5    0    0    4
 79      1     6       5    0    0    3
 80      1     3       6    3    0    0
 81      1    10       5    5    0    8
 82      1     1       0    0    6    4
 83      1     7       0    0    0    5
 84      1     4       0    0    3    0
 85      1     3       5    0    0    0
 86      1     3       9    0    0    0
 87      1     5       0    5    2    0
 88      1     5       6   10    9    0
 89      1     4       5    9    0    7
 90      1    10       0    3    3    8
 91      1     7      10    0    2    0
 92      1     0       0    0    0    0
************************************************************************
RESOURCEAVAILABILITIES:
  R 1  R 2  R 3  R 4
   28   33   23   23
************************************************************************
Job	#risk	Type	VL	mu	sigma	Type	VL	mu	sigma
13	2	1	0.2	1.25	0.25	5	0.1	6.25	0.625
14	2	2	0.1	2.5	0.25	8	0.1	10	1
19	2	1	0.1	1.25	0.125	6	0.1	7.5	0.75
25	2	2	0.1	2.5	0.25	4	0.05	5	0.25
27	2	2	0.1	2.5	0.25	4	0.2	5	1
31	1	8	0.2	10	2
34	2	4	0.2	5	1	6	0.1	7.5	0.75
35	2	3	0.1	3.75	0.375	7	0.2	8.75	1.75
36	2	2	0.05	2.5	0.125	6	0.2	7.5	1.5
50	1	6	0.2	7.5	1.5
52	2	5	0.2	6.25	1.25	7	0.05	8.75	0.4375
55	2	2	0.05	2.5	0.125	3	0.05	3.75	0.1875
57	2	7	0.1	8.75	0.875	8	0.2	10	2
59	2	4	0.1	5	0.5	6	0.2	7.5	1.5
60	2	2	0.05	2.5	0.125	5	0.2	6.25	1.25
61	2	5	0.2	6.25	1.25	8	0.2	10	2
63	2	6	0.2	7.5	1.5	8	0.1	10	1
70	2	3	0.2	3.75	0.75	6	0.1	7.5	0.75
80	1	7	0.2	8.75	1.75
82	2	6	0.05	7.5	0.375	8	0.2	10	2
83	1	3	0.05	3.75	0.1875
84	1	1	0.2	1.25	0.25
85	1	5	0.1	6.25	0.625
86	1	3	0.2	3.75	0.75
87	1	8	0.2	10	2
88	1	2	0.2	2.5	0.5
89	1	4	0.2	5	1
